data;

param DAY := 3;
param SESSION := 7;
set STUDENT := 0 1 2 3 4 5 6 7 8 9 10 11 12 13 14 15 16 17 18 19 20 21 22 23 24 25 26 27 28 29 30 31 32 33 34 35 36 37 38 39 40 41 42 43 44 45 46 47 48 49 50 51 52 53 54 55 56 57 58 59 60 61 62 63 64 65 66 67 68 69 70 71 72 73 74 75 76 77 78 79 80 81 82 83 84 85 86 87 88 89 90 91 92 93 94 95 96 97 98 99 100 101 102 103 104 105 106 107 108 109 110 111 112 113 114 115 116 117 118 119 120 121 122 123 124 125 126 127 128 129 130 131 132 133 134 135 136 137 138 139 140 141 142 143 144 145 146 147 148 149 150 151 152 153 154 155 156 157 158 159 160 161 162 163 164 165 166 167 168 169 170 171 172 173 174 175 176 177 178 179 180 181 182 183 184 185 186 187 188 189;
set TEACHER := 0 1 2 3 4 5 6 7 8 9 10 11 12 13 14 15 16 17 18 19 20 21 22 23 24 25 26 27 28 29 30 31 32 33 34 35 36 37 38 39 40 41 42 43 44 45 46 47 48 49 50 51 52 53 54 55 56 57 58 59 60 61 62 63 64 65 66 67 68 69 70 71 72 73 74 75 76 77 78 79;
set DEPT0 := 1 3 12 17 23 24 36 41 44 47 54 61 74 76;
set DEPT1 := 2 3 6 7 9 13 14 16 18 21 29 30 32 33 34 38 39 42 44 47 49 50 51 53 54 57 58 63 66 67 68 70 77 78;
set DEPT2 := 1 3 11 12 19 26 27 40 41 45 48 51 57 60 61 62 67 68 71 73 74 77 78;
set DEPT3 := 0 11 14 15 19 26 37 39 66;
set DEPT4 := 14 20 25 27 46 56 60 62 66 78;
set DEPT5 := 5 8 10 28 45 50 59 71;
set DEPT6 := 32 43 52 57 65 69 72;
set DEPT7 := 2 4 22 29 31 32 33 42 48 57;
set DEPT8 := 16 35 38 41 49 61 66 68 70 71 74 77;
set DEPT9 := 6 30 34 45 55 64 75 79;
set DEPT10 := 3 44 47 54;
set DEPT11 := 13 18 21 53;
set DEPT12 := 51 67;
set DEPT13 := 39 66;
set DEPT14 := 14 66 78;
set DEPT15 := 50;
set DEPT16 := 32 57;
set DEPT17 := 2 29 32 33 42;
set DEPT18 := 16 38 49 66 68 70 77;
set DEPT19 := 6 30 34;
set DEPT20 := 1 12 41 61 74;
set DEPT21 := 68 77;
set DEPT22 := 3 67 78;
set DEPT23 := 11 19 26;
set DEPT24 := 27 60 62;
set DEPT25 := 45;
set DEPT26 :=;
set DEPT27 := 48 57;
set DEPT28 := 71;

param TRIPLE :=
             9  1 ;
